webassembly/ejemplos_dzn/3/folder3_json_61.dzn
TERM = { '.', 'in_1', 'local_1', 'in_2', 's(0)', 'in_0'};
null = '.';
s = 3;
n = 8;
ndeps = 1;
max_registers_sz = 3;
NR = 0;
registers = [| |];
dependencies = [|'i32.store_0', 'i32.load8_s_1'|];
GET_ENUM = { GET1, GET2, GET3};
SET_ENUM = { SET1, SET2, SET3};
TEE_ENUM = { TEE1, TEE2, TEE3};
N = 3;
OP = { 'i32.store_0', 'i32.load8_s_1', 'local.get_0' };
in_ops = [2, 1, 0 ];
out_ops = [0, 1, 1 ];
in1 = ['in_0', 'in_2', '.' ];
in2 = ['in_1', '.', '.' ];
in3 = ['.', '.', '.' ];
out1 = ['.', 's(0)', 'local_1' ];
out2 = ['.', '.', '.' ];
out3 = ['.', '.', '.' ];
comm = [false, false, false ];
gas = [1, 1, 1 ];
sz = [1, 1, 1 ];
stor = [true, false, false ];
lb = [ 1, 1, 1 ];
ub = [ 3, 3, 3 ];
startstack = [ 'in_0', 'in_1', 'in_2', null, null, null, null, null ];
endstack = [ 'local_1', 's(0)', null, null, null, null, null, null ];
