webassembly/ejemplos_results/3/folder3_json_61.txt
value = 3;
fgas = [1, 1, 1];
fsize = [1, 1, 1];
states = 
[|    in_0,   in_1, in_2, '.', '.', '.', '.', '.'
 |    in_2,    '.',  '.', '.', '.', '.', '.', '.'
 |  's(0)',    '.',  '.', '.', '.', '.', '.', '.'
 | local_1, 's(0)',  '.', '.', '.', '.', '.', '.'
 |];
register_states = 
[| '.', '.', '.'
 | '.', '.', '.'
 | '.', '.', '.'
 | '.', '.', '.'
 |];
program = [O('i32.store_0'), O('i32.load8_s_1'), O('local.get_0')];
% time elapsed: 0.06 s
----------
==========
% time elapsed: 0.06 s
% [value > 2]
